language ESSENCE' 1.0
$ minion Nodes: 5
$ minion TotalTime: 0.000407
$ Savile Row TotalTime: 0.417
letting m_SetOccurrence be [[false, false, true;int(6..8)], 
[false, false, true;int(6..8)];int(4,5)]
